39 0
8 13 2 13 21 14 15 21 10 34 5 16 27 20 7 19 25 10 17 17 28 17 9 37 3 16 37 14 29 1 18 9 10 8 36 3 28 14 21 11 3 29 37 7 30 23 32 35 18 8 38 5 13 19 34 29 6 36 38 2 12 20 6 22 20 4 24 5 18 32 4 34 1 26 33 15 0 26 24 31 6 15 11 30 35 35 12 22 7 23 33 0 25 11 27 16 26 31 0 19 